1    SIMPLE BEAM EXAMPLE                                                    JANUARY  25, 2021  pyNastran v1.3.4       PAGE     1
                                                                                                                                    
0     SUBCASE 1                                                                                              SUBCASE 1              
 
                         S T R E S S   D I S T R I B U T I O N   I N   B A R   E L E M E N T S       ( C B A R )
0    ELEMENT  STATION    SXC           SXD           SXE           SXF            AXIAL          S-MAX         S-MIN         M.S.-T
       ID.     (PCT)                                                                                                         M.S.-C
0       1    0.0            0.0           -2.357851E+03   0.0            2.357851E+03   0.0            2.357851E+03 -2.357851E+03  1.401298E-45
0       1    1.000000E+00   0.0           -1.909859E+03   0.0            1.909859E+03   0.0            1.909859E+03 -1.909859E+03  1.401298E-45
0       2    0.0            0.0           -1.909859E+03   0.0            1.909859E+03   0.0            1.909859E+03 -1.909859E+03  1.401298E-45
0       2    1.000000E+00   0.0           -1.509024E+03   0.0            1.509024E+03   0.0            1.509024E+03 -1.509024E+03  1.401298E-45
0       3    0.0            0.0           -1.509024E+03   0.0            1.509024E+03   0.0            1.509024E+03 -1.509024E+03  1.401298E-45
0       3    1.000000E+00   0.0           -1.155347E+03   0.0            1.155347E+03   0.0            1.155347E+03 -1.155347E+03  1.401298E-45
0       4    0.0            0.0           -1.155347E+03   0.0            1.155347E+03   0.0            1.155347E+03 -1.155347E+03  1.401298E-45
0       4    1.000000E+00   0.0           -8.488262E+02   0.0            8.488262E+02   0.0            8.488262E+02 -8.488262E+02  1.401298E-45
0       5    0.0            0.0           -8.488262E+02   0.0            8.488262E+02   0.0            8.488262E+02 -8.488262E+02  1.401298E-45
0       5    1.000000E+00   0.0           -5.894626E+02   0.0            5.894626E+02   0.0            5.894626E+02 -5.894626E+02  1.401298E-45
0       6    0.0            0.0           -5.894626E+02   0.0            5.894626E+02   0.0            5.894626E+02 -5.894626E+02  1.401298E-45
0       6    1.000000E+00   0.0           -3.772561E+02   0.0            3.772561E+02   0.0            3.772561E+02 -3.772561E+02  1.401298E-45
0       7    0.0            0.0           -3.772561E+02   0.0            3.772561E+02   0.0            3.772561E+02 -3.772561E+02  1.401298E-45
0       7    1.000000E+00   0.0           -2.122066E+02   0.0            2.122066E+02   0.0            2.122066E+02 -2.122066E+02  1.401298E-45
0       8    0.0            0.0           -2.122066E+02   0.0            2.122066E+02   0.0            2.122066E+02 -2.122066E+02  1.401298E-45
0       8    1.000000E+00   0.0           -9.431403E+01   0.0            9.431403E+01   0.0            9.431403E+01 -9.431403E+01  1.401298E-45
0       9    0.0            0.0           -9.431403E+01   0.0            9.431403E+01   0.0            9.431403E+01 -9.431403E+01  1.401298E-45
0       9    1.000000E+00   0.0           -2.357851E+01   0.0            2.357851E+01   0.0            2.357851E+01 -2.357851E+01  1.401298E-45
1    SIMPLE BEAM EXAMPLE                                                    JANUARY  25, 2021  pyNastran v1.3.4       PAGE     2
                                                                                                                                    
0     SUBCASE 1                                                                                              SUBCASE 1              
 
                                  S T R E S S E S   I N   B E A M   E L E M E N T S        ( C B E A M )
                    STAT DIST/
   ELEMENT-ID  GRID   LENGTH    SXC           SXD           SXE           SXF           S-MAX         S-MIN         M.S.-T   M.S.-C
0        10
                 10   0.000            0.0 -2.357851E+01          0.0  2.357851E+01  2.357851E+01 -2.357851E+01  1.401298E-45 1.401298E-45
                 11   1.000            0.0 -7.824852E-13          0.0  7.824852E-13  7.824852E-13 -7.824852E-13  1.401298E-45 1.401298E-45
1    SIMPLE BEAM EXAMPLE                                                    JANUARY  25, 2021  pyNastran v1.3.4       PAGE     3
                                                                                                                                    
0     SUBCASE 1                                                                                              SUBCASE 1              
 
                                             D I S P L A C E M E N T   V E C T O R
 
      POINT ID.   TYPE          T1             T2             T3             R1             R2             R3
             1      G      0.0            0.0            0.0            0.0            0.0            0.0
             2      G      0.0            0.0            1.258480E-04   0.0           -2.366583E-04   0.0
             3      G      0.0            0.0            4.639845E-04   0.0           -4.261597E-04   0.0
             4      G      0.0            0.0            9.698721E-04   0.0           -5.737437E-04   0.0
             5      G      0.0            0.0            1.604213E-03   0.0           -6.846500E-04   0.0
             6      G      0.0            0.0            2.332950E-03   0.0           -7.641183E-04   0.0
             7      G      0.0            0.0            3.127265E-03   0.0           -8.173882E-04   0.0
             8      G      0.0            0.0            3.963579E-03   0.0           -8.496995E-04   0.0
             9      G      0.0            0.0            4.823553E-03   0.0           -8.662918E-04   0.0
            10      G      0.0            0.0            5.694089E-03   0.0           -8.724047E-04   0.0
            11      G      0.0            0.0            6.567326E-03   0.0           -8.732780E-04   0.0
1    SIMPLE BEAM EXAMPLE                                                    JANUARY  25, 2021  pyNastran v1.3.4       PAGE     4
                                                                                                                                    
0     SUBCASE 1                                                                                              SUBCASE 1              
 
                         F O R C E   D I S T R I B U T I O N   I N   B A R   E L E M E N T S          ( C B A R )
0    ELEMENT  STATION         BEND-MOMENT                      SHEAR FORCE                     AXIAL
       ID.     (PCT)     PLANE 1        PLANE 2           PLANE 1        PLANE 2               FORCE              TORQUE
            1   0.000   0.0            5.000000E+01      0.0            1.000000E+01          0.0                0.0
            1   1.000   0.0            4.050000E+01      0.0            9.000000E+00          0.0                0.0
            2   0.000   0.0            4.050000E+01      0.0            9.000000E+00          0.0                0.0
            2   1.000   0.0            3.200000E+01      0.0            8.000000E+00          0.0                0.0
            3   0.000   0.0            3.200000E+01      0.0            8.000000E+00          0.0                0.0
            3   1.000   0.0            2.450000E+01      0.0            7.000000E+00          0.0                0.0
            4   0.000   0.0            2.450000E+01      0.0            7.000000E+00          0.0                0.0
            4   1.000   0.0            1.800000E+01      0.0            6.000000E+00          0.0                0.0
            5   0.000   0.0            1.800000E+01      0.0            6.000000E+00          0.0                0.0
            5   1.000   0.0            1.250000E+01      0.0            5.000000E+00          0.0                0.0
            6   0.000   0.0            1.250000E+01      0.0            5.000000E+00          0.0                0.0
            6   1.000   0.0            8.000000E+00      0.0            4.000000E+00          0.0                0.0
            7   0.000   0.0            8.000000E+00      0.0            4.000000E+00          0.0                0.0
            7   1.000   0.0            4.500000E+00      0.0            3.000000E+00          0.0                0.0
            8   0.000   0.0            4.500000E+00      0.0            3.000000E+00          0.0                0.0
            8   1.000   0.0            2.000000E+00      0.0            2.000000E+00          0.0                0.0
            9   0.000   0.0            2.000000E+00      0.0            2.000000E+00          0.0                0.0
            9   1.000   0.0            5.000000E-01      0.0            1.000000E+00          0.0                0.0
1    SIMPLE BEAM EXAMPLE                                                    JANUARY  25, 2021  pyNastran v1.3.4       PAGE     5
                                                                                                                                    
0     SUBCASE 1                                                                                              SUBCASE 1              
 
                                 F O R C E S   I N   B E A M   E L E M E N T S        ( C B E A M )
                    STAT DIST/   - BENDING MOMENTS -            - WEB  SHEARS -           AXIAL          TOTAL          WARPING
   ELEMENT-ID  GRID   LENGTH    PLANE 1       PLANE 2        PLANE 1       PLANE 2        FORCE          TORQUE         TORQUE
0        10
                 10   0.000    0.0           5.000000E-01   0.0           1.000000E+00   0.0            0.0            0.0
                 11   1.000    0.0           1.659783E-14   0.0           1.872946E-13   0.0            0.0            0.0
1    SIMPLE BEAM EXAMPLE                                                    JANUARY  25, 2021  pyNastran v1.3.4       PAGE     6
                                                                                                                                    
0     SUBCASE 1                                                                                              SUBCASE 1              
 
                                          G R I D   P O I N T   F O R C E   B A L A N C E
 
   POINT-ID    ELEMENT-ID     SOURCE             T1             T2             T3             R1             R2             R3
          1             0    APP-LOAD       0.0            0.0            5.000000E-01   0.0           -8.333334E-02   0.0
          1             0    F-OF-SPC       0.0            0.0           -1.000000E+01   0.0            5.000000E+01   0.0
0         1             1    BAR            0.0            0.0            9.500000E+00   0.0           -4.991667E+01   0.0
          1             0    *TOTALS*       0.0            0.0            0.0            0.0            0.0            0.0
          2             0    APP-LOAD       0.0            0.0            1.000000E+00   0.0           -4.163336E-17   0.0
0         2             1    BAR            0.0            0.0           -9.500000E+00   0.0            4.041667E+01   0.0
          2             2    BAR            0.0            0.0            8.500000E+00   0.0           -4.041667E+01   0.0
          2             0    *TOTALS*       0.0            0.0           -2.842171E-14   0.0           -1.421085E-14   0.0
          3             0    APP-LOAD       0.0            0.0            1.000000E+00   0.0           -4.163336E-17   0.0
0         3             2    BAR            0.0            0.0           -8.500000E+00   0.0            3.191667E+01   0.0
          3             3    BAR            0.0            0.0            7.500000E+00   0.0           -3.191667E+01   0.0
          3             0    *TOTALS*       0.0            0.0           -5.684342E-14   0.0            1.421085E-14   0.0
          4             0    APP-LOAD       0.0            0.0            1.000000E+00   0.0           -4.163336E-17   0.0
0         4             3    BAR            0.0            0.0           -7.500000E+00   0.0            2.441667E+01   0.0
          4             4    BAR            0.0            0.0            6.500000E+00   0.0           -2.441667E+01   0.0
          4             0    *TOTALS*       0.0            0.0            5.684342E-14   0.0            9.947598E-14   0.0
          5             0    APP-LOAD       0.0            0.0            1.000000E+00   0.0           -4.163336E-17   0.0
0         5             4    BAR            0.0            0.0           -6.500000E+00   0.0            1.791667E+01   0.0
          5             5    BAR            0.0            0.0            5.500000E+00   0.0           -1.791667E+01   0.0
          5             0    *TOTALS*       0.0            0.0            3.410605E-13   0.0            2.842171E-14   0.0
          6             0    APP-LOAD       0.0            0.0            1.000000E+00   0.0           -4.163336E-17   0.0
0         6             5    BAR            0.0            0.0           -5.500000E+00   0.0            1.241667E+01   0.0
          6             6    BAR            0.0            0.0            4.500000E+00   0.0           -1.241667E+01   0.0
          6             0    *TOTALS*       0.0            0.0           -6.252776E-13   0.0            1.421085E-14   0.0
          7             0    APP-LOAD       0.0            0.0            1.000000E+00   0.0           -4.163336E-17   0.0
0         7             6    BAR            0.0            0.0           -4.500000E+00   0.0            7.916667E+00   0.0
          7             7    BAR            0.0            0.0            3.500000E+00   0.0           -7.916667E+00   0.0
          7             0    *TOTALS*       0.0            0.0            1.705303E-12   0.0           -5.968559E-13   0.0
          8             0    APP-LOAD       0.0            0.0            1.000000E+00   0.0           -4.163336E-17   0.0
0         8             7    BAR            0.0            0.0           -3.500000E+00   0.0            4.416667E+00   0.0
          8             8    BAR            0.0            0.0            2.500000E+00   0.0           -4.416667E+00   0.0
          8             0    *TOTALS*       0.0            0.0           -1.477929E-12   0.0           -2.700062E-13   0.0
          9             0    APP-LOAD       0.0            0.0            1.000000E+00   0.0           -4.163336E-17   0.0
0         9             8    BAR            0.0            0.0           -2.500000E+00   0.0            1.916667E+00   0.0
          9             9    BAR            0.0            0.0            1.500000E+00   0.0           -1.916667E+00   0.0
          9             0    *TOTALS*       0.0            0.0            1.023182E-12   0.0            6.679102E-13   0.0
         10             0    APP-LOAD       0.0            0.0            1.000000E+00   0.0            4.239664E-14   0.0
0        10             9    BAR            0.0            0.0           -1.500000E+00   0.0            4.166667E-01   0.0
         10            10    BEAM           0.0            0.0            5.000000E-01   0.0           -4.166667E-01   0.0
         10             0    *TOTALS*       0.0            0.0            7.360779E-14   0.0            1.703082E-13   0.0
         11             0    APP-LOAD       0.0            0.0            5.000000E-01   0.0            8.333334E-02   0.0
0        11            10    BEAM           0.0            0.0           -5.000000E-01   0.0           -8.333334E-02   0.0
         11             0    *TOTALS*       0.0            0.0           -1.872946E-13   0.0            1.659783E-14   0.0
1    SIMPLE BEAM EXAMPLE                                                    JANUARY  25, 2021  pyNastran v1.3.4       PAGE     7
 
1                                        * * * END OF JOB * * *
 
 